c cksystemsgroup.github.io/unicorn
c CNF contains a total of 495 clauses.
c CNF contains a total of 119 variables.
c CNF clauses cover 1 bad states.
c Variable name mapping (17 names):
c   1: input[bit=0]
c   2: input[bit=0]
c   5: input[bit=1]
c   7: input[bit=1]
c   13: input[bit=2]
c   18: input[bit=2]
c   24: input[bit=3]
c   32: input[bit=3]
c   38: input[bit=4]
c   49: input[bit=4]
c   54: input[bit=5]
c   68: input[bit=5]
c   73: input[bit=6]
c   90: input[bit=6]
c   95: input[bit=7]
c   115: input[bit=7]
c   119: ?
p cnf 119 495
-1 -2 3 0
1 -3 0
2 -3 0
-3 -4 0
3 4 0
-5 -2 6 0
5 -6 0
2 -6 0
-1 -7 8 0
1 -8 0
7 -8 0
-9 0
6 8 9 -10 0
6 8 -9 10 0
6 -8 9 10 0
6 -8 -9 -10 0
-6 8 9 10 0
-6 8 -9 -10 0
-6 -8 9 -10 0
-6 -8 -9 10 0
-10 -11 0
10 11 0
-4 -11 12 0
4 -12 0
11 -12 0
-13 -2 14 0
13 -14 0
2 -14 0
-5 -7 15 0
5 -15 0
7 -15 0
6 8 -16 0
6 9 -16 0
-8 -9 16 0
8 9 -16 0
-6 -9 16 0
-6 -8 16 0
14 15 16 -17 0
14 15 -16 17 0
14 -15 16 17 0
14 -15 -16 -17 0
-14 15 16 17 0
-14 15 -16 -17 0
-14 -15 16 -17 0
-14 -15 -16 17 0
-1 -18 19 0
1 -19 0
18 -19 0
-20 0
17 19 20 -21 0
17 19 -20 21 0
17 -19 20 21 0
17 -19 -20 -21 0
-17 19 20 21 0
-17 19 -20 -21 0
-17 -19 20 -21 0
-17 -19 -20 21 0
-21 -22 0
21 22 0
-12 -22 23 0
12 -23 0
22 -23 0
-24 -2 25 0
24 -25 0
2 -25 0
-13 -7 26 0
13 -26 0
7 -26 0
14 15 -27 0
14 16 -27 0
-15 -16 27 0
15 16 -27 0
-14 -16 27 0
-14 -15 27 0
25 26 27 -28 0
25 26 -27 28 0
25 -26 27 28 0
25 -26 -27 -28 0
-25 26 27 28 0
-25 26 -27 -28 0
-25 -26 27 -28 0
-25 -26 -27 28 0
-5 -18 29 0
5 -29 0
18 -29 0
17 19 -30 0
17 20 -30 0
-19 -20 30 0
19 20 -30 0
-17 -20 30 0
-17 -19 30 0
28 29 30 -31 0
28 29 -30 31 0
28 -29 30 31 0
28 -29 -30 -31 0
-28 29 30 31 0
-28 29 -30 -31 0
-28 -29 30 -31 0
-28 -29 -30 31 0
-1 -32 33 0
1 -33 0
32 -33 0
-34 0
31 33 34 -35 0
31 33 -34 35 0
31 -33 34 35 0
31 -33 -34 -35 0
-31 33 34 35 0
-31 33 -34 -35 0
-31 -33 34 -35 0
-31 -33 -34 35 0
-35 -36 0
35 36 0
-23 -36 37 0
23 -37 0
36 -37 0
-38 -2 39 0
38 -39 0
2 -39 0
-24 -7 40 0
24 -40 0
7 -40 0
25 26 -41 0
25 27 -41 0
-26 -27 41 0
26 27 -41 0
-25 -27 41 0
-25 -26 41 0
39 40 41 -42 0
39 40 -41 42 0
39 -40 41 42 0
39 -40 -41 -42 0
-39 40 41 42 0
-39 40 -41 -42 0
-39 -40 41 -42 0
-39 -40 -41 42 0
-13 -18 43 0
13 -43 0
18 -43 0
28 29 -44 0
28 30 -44 0
-29 -30 44 0
29 30 -44 0
-28 -30 44 0
-28 -29 44 0
42 43 44 -45 0
42 43 -44 45 0
42 -43 44 45 0
42 -43 -44 -45 0
-42 43 44 45 0
-42 43 -44 -45 0
-42 -43 44 -45 0
-42 -43 -44 45 0
-5 -32 46 0
5 -46 0
32 -46 0
31 33 -47 0
31 34 -47 0
-33 -34 47 0
33 34 -47 0
-31 -34 47 0
-31 -33 47 0
45 46 47 -48 0
45 46 -47 48 0
45 -46 47 48 0
45 -46 -47 -48 0
-45 46 47 48 0
-45 46 -47 -48 0
-45 -46 47 -48 0
-45 -46 -47 48 0
-1 -49 50 0
1 -50 0
49 -50 0
-51 0
48 50 51 -52 0
48 50 -51 52 0
48 -50 51 52 0
48 -50 -51 -52 0
-48 50 51 52 0
-48 50 -51 -52 0
-48 -50 51 -52 0
-48 -50 -51 52 0
-37 -52 53 0
37 -53 0
52 -53 0
-54 -2 55 0
54 -55 0
2 -55 0
-38 -7 56 0
38 -56 0
7 -56 0
39 40 -57 0
39 41 -57 0
-40 -41 57 0
40 41 -57 0
-39 -41 57 0
-39 -40 57 0
55 56 57 -58 0
55 56 -57 58 0
55 -56 57 58 0
55 -56 -57 -58 0
-55 56 57 58 0
-55 56 -57 -58 0
-55 -56 57 -58 0
-55 -56 -57 58 0
-24 -18 59 0
24 -59 0
18 -59 0
42 43 -60 0
42 44 -60 0
-43 -44 60 0
43 44 -60 0
-42 -44 60 0
-42 -43 60 0
58 59 60 -61 0
58 59 -60 61 0
58 -59 60 61 0
58 -59 -60 -61 0
-58 59 60 61 0
-58 59 -60 -61 0
-58 -59 60 -61 0
-58 -59 -60 61 0
-13 -32 62 0
13 -62 0
32 -62 0
45 46 -63 0
45 47 -63 0
-46 -47 63 0
46 47 -63 0
-45 -47 63 0
-45 -46 63 0
61 62 63 -64 0
61 62 -63 64 0
61 -62 63 64 0
61 -62 -63 -64 0
-61 62 63 64 0
-61 62 -63 -64 0
-61 -62 63 -64 0
-61 -62 -63 64 0
-5 -49 65 0
5 -65 0
49 -65 0
48 50 -66 0
48 51 -66 0
-50 -51 66 0
50 51 -66 0
-48 -51 66 0
-48 -50 66 0
64 65 66 -67 0
64 65 -66 67 0
64 -65 66 67 0
64 -65 -66 -67 0
-64 65 66 67 0
-64 65 -66 -67 0
-64 -65 66 -67 0
-64 -65 -66 67 0
-1 -68 69 0
1 -69 0
68 -69 0
-70 0
67 69 70 -71 0
67 69 -70 71 0
67 -69 70 71 0
67 -69 -70 -71 0
-67 69 70 71 0
-67 69 -70 -71 0
-67 -69 70 -71 0
-67 -69 -70 71 0
-53 -71 72 0
53 -72 0
71 -72 0
-73 -2 74 0
73 -74 0
2 -74 0
-54 -7 75 0
54 -75 0
7 -75 0
55 56 -76 0
55 57 -76 0
-56 -57 76 0
56 57 -76 0
-55 -57 76 0
-55 -56 76 0
74 75 76 -77 0
74 75 -76 77 0
74 -75 76 77 0
74 -75 -76 -77 0
-74 75 76 77 0
-74 75 -76 -77 0
-74 -75 76 -77 0
-74 -75 -76 77 0
-38 -18 78 0
38 -78 0
18 -78 0
58 59 -79 0
58 60 -79 0
-59 -60 79 0
59 60 -79 0
-58 -60 79 0
-58 -59 79 0
77 78 79 -80 0
77 78 -79 80 0
77 -78 79 80 0
77 -78 -79 -80 0
-77 78 79 80 0
-77 78 -79 -80 0
-77 -78 79 -80 0
-77 -78 -79 80 0
-24 -32 81 0
24 -81 0
32 -81 0
61 62 -82 0
61 63 -82 0
-62 -63 82 0
62 63 -82 0
-61 -63 82 0
-61 -62 82 0
80 81 82 -83 0
80 81 -82 83 0
80 -81 82 83 0
80 -81 -82 -83 0
-80 81 82 83 0
-80 81 -82 -83 0
-80 -81 82 -83 0
-80 -81 -82 83 0
-13 -49 84 0
13 -84 0
49 -84 0
64 65 -85 0
64 66 -85 0
-65 -66 85 0
65 66 -85 0
-64 -66 85 0
-64 -65 85 0
83 84 85 -86 0
83 84 -85 86 0
83 -84 85 86 0
83 -84 -85 -86 0
-83 84 85 86 0
-83 84 -85 -86 0
-83 -84 85 -86 0
-83 -84 -85 86 0
-5 -68 87 0
5 -87 0
68 -87 0
67 69 -88 0
67 70 -88 0
-69 -70 88 0
69 70 -88 0
-67 -70 88 0
-67 -69 88 0
86 87 88 -89 0
86 87 -88 89 0
86 -87 88 89 0
86 -87 -88 -89 0
-86 87 88 89 0
-86 87 -88 -89 0
-86 -87 88 -89 0
-86 -87 -88 89 0
-1 -90 91 0
1 -91 0
90 -91 0
-92 0
89 91 92 -93 0
89 91 -92 93 0
89 -91 92 93 0
89 -91 -92 -93 0
-89 91 92 93 0
-89 91 -92 -93 0
-89 -91 92 -93 0
-89 -91 -92 93 0
-72 -93 94 0
72 -94 0
93 -94 0
-95 -2 96 0
95 -96 0
2 -96 0
-73 -7 97 0
73 -97 0
7 -97 0
74 75 -98 0
74 76 -98 0
-75 -76 98 0
75 76 -98 0
-74 -76 98 0
-74 -75 98 0
96 97 98 -99 0
96 97 -98 99 0
96 -97 98 99 0
96 -97 -98 -99 0
-96 97 98 99 0
-96 97 -98 -99 0
-96 -97 98 -99 0
-96 -97 -98 99 0
-54 -18 100 0
54 -100 0
18 -100 0
77 78 -101 0
77 79 -101 0
-78 -79 101 0
78 79 -101 0
-77 -79 101 0
-77 -78 101 0
99 100 101 -102 0
99 100 -101 102 0
99 -100 101 102 0
99 -100 -101 -102 0
-99 100 101 102 0
-99 100 -101 -102 0
-99 -100 101 -102 0
-99 -100 -101 102 0
-38 -32 103 0
38 -103 0
32 -103 0
80 81 -104 0
80 82 -104 0
-81 -82 104 0
81 82 -104 0
-80 -82 104 0
-80 -81 104 0
102 103 104 -105 0
102 103 -104 105 0
102 -103 104 105 0
102 -103 -104 -105 0
-102 103 104 105 0
-102 103 -104 -105 0
-102 -103 104 -105 0
-102 -103 -104 105 0
-24 -49 106 0
24 -106 0
49 -106 0
83 84 -107 0
83 85 -107 0
-84 -85 107 0
84 85 -107 0
-83 -85 107 0
-83 -84 107 0
105 106 107 -108 0
105 106 -107 108 0
105 -106 107 108 0
105 -106 -107 -108 0
-105 106 107 108 0
-105 106 -107 -108 0
-105 -106 107 -108 0
-105 -106 -107 108 0
-13 -68 109 0
13 -109 0
68 -109 0
86 87 -110 0
86 88 -110 0
-87 -88 110 0
87 88 -110 0
-86 -88 110 0
-86 -87 110 0
108 109 110 -111 0
108 109 -110 111 0
108 -109 110 111 0
108 -109 -110 -111 0
-108 109 110 111 0
-108 109 -110 -111 0
-108 -109 110 -111 0
-108 -109 -110 111 0
-5 -90 112 0
5 -112 0
90 -112 0
89 91 -113 0
89 92 -113 0
-91 -92 113 0
91 92 -113 0
-89 -92 113 0
-89 -91 113 0
111 112 113 -114 0
111 112 -113 114 0
111 -112 113 114 0
111 -112 -113 -114 0
-111 112 113 114 0
-111 112 -113 -114 0
-111 -112 113 -114 0
-111 -112 -113 114 0
-1 -115 116 0
1 -116 0
115 -116 0
-117 0
114 116 117 -118 0
114 116 -117 118 0
114 -116 117 118 0
114 -116 -117 -118 0
-114 116 117 118 0
-114 116 -117 -118 0
-114 -116 117 -118 0
-114 -116 -117 118 0
-94 -118 119 0
94 -119 0
118 -119 0
119 0
